/*********************************************
 * OPL 12.6.0.0 Data
 * Author: Adrian Rodriguez Bazaga, Pau Rodriguez Esmerats
 * Creation Date: 10/12/2017 at 12:53:48
 *********************************************/

maxConsec=5;
maxPresence=8;
maxHours=2;
minHours=1;
hours=24;
demand= [29 38 40 31 22 10 0 0 0 0 0 0 0 0 0 0 0 0 0 0 0 0 0 0  ];
nNurses=64;
centroides=2;
